20 62 
1 5 1
1 8 1
1 17 1
2 5 1
2 6 1
2 7 1
2 12 1
3 5 1
3 6 1
3 7 1
3 8 1
3 9 1
3 10 1
3 13 1
3 14 1
3 16 1
3 17 1
3 19 1
4 5 1
4 6 1
4 8 1
4 9 1
4 10 1
4 11 1
4 13 1
4 14 1
4 15 1
5 6 1
5 7 1
5 11 1
5 12 1
5 13 1
5 15 1
5 19 1
6 7 1
6 8 1
6 9 1
6 10 1
6 12 1
6 20 1
7 11 1
7 14 1
7 16 1
7 18 1
7 20 1
8 11 1
8 18 1
9 10 1
9 18 1
10 13 1
10 15 1
10 16 1
10 17 1
11 12 1
11 14 1
11 16 1
11 17 1
11 19 1
13 18 1
15 19 1
17 20 1
18 20 1
